p cnf 405 2178
1 0
-2 0
-3 0
-4 0
-5 0
-6 0
43 7 0
-43 -7 0
7 8 9 10 11 12 0
-7 -295 0
-7 -296 0
-7 -297 0
-8 295 0
-8 -296 0
-8 -297 0
-9 -295 0
-9 296 0
-9 -297 0
-10 295 0
-10 296 0
-10 -297 0
-11 -295 0
-11 -296 0
-11 297 0
-12 295 0
-12 -296 0
-12 297 0
-7 1 13 0
-7 1 49 0
-7 13 49 0
-8 2 14 0
-8 2 50 0
-8 14 50 0
-9 3 15 0
-9 3 51 0
-9 15 51 0
-10 4 16 0
-10 4 52 0
-10 16 52 0
-11 5 17 0
-11 5 53 0
-11 17 53 0
-12 6 18 0
-12 6 54 0
-12 18 54 0
-7 -1 -13 -49 0
-8 -2 -14 -50 0
-9 -3 -15 -51 0
-10 -4 -16 -52 0
-11 -5 -17 -53 0
-12 -6 -18 -54 0
13 14 15 16 17 18 0
-13 -298 0
-13 -299 0
-13 -300 0
-14 298 0
-14 -299 0
-14 -300 0
-15 -298 0
-15 299 0
-15 -300 0
-16 298 0
-16 299 0
-16 -300 0
-17 -298 0
-17 -299 0
-17 300 0
-18 298 0
-18 -299 0
-18 300 0
-13 7 19 0
-13 7 55 0
-13 19 55 0
-14 8 20 0
-14 8 56 0
-14 20 56 0
-15 9 21 0
-15 9 57 0
-15 21 57 0
-16 10 22 0
-16 10 58 0
-16 22 58 0
-17 11 23 0
-17 11 59 0
-17 23 59 0
-18 12 24 0
-18 12 60 0
-18 24 60 0
-13 -7 -19 -55 0
-14 -8 -20 -56 0
-15 -9 -21 -57 0
-16 -10 -22 -58 0
-17 -11 -23 -59 0
-18 -12 -24 -60 0
19 20 21 22 23 24 0
-19 -301 0
-19 -302 0
-19 -303 0
-20 301 0
-20 -302 0
-20 -303 0
-21 -301 0
-21 302 0
-21 -303 0
-22 301 0
-22 302 0
-22 -303 0
-23 -301 0
-23 -302 0
-23 303 0
-24 301 0
-24 -302 0
-24 303 0
-19 13 25 0
-19 13 61 0
-19 25 61 0
-20 14 26 0
-20 14 62 0
-20 26 62 0
-21 15 27 0
-21 15 63 0
-21 27 63 0
-22 16 28 0
-22 16 64 0
-22 28 64 0
-23 17 29 0
-23 17 65 0
-23 29 65 0
-24 18 30 0
-24 18 66 0
-24 30 66 0
-19 -13 -25 -61 0
-20 -14 -26 -62 0
-21 -15 -27 -63 0
-22 -16 -28 -64 0
-23 -17 -29 -65 0
-24 -18 -30 -66 0
25 0
-26 0
-27 0
-28 0
-29 0
-30 0
19 31 67 0
-19 -31 0
-19 -67 0
-31 -67 0
32 0
-31 0
-33 0
-34 0
-35 0
-36 0
26 38 74 0
-26 -38 0
-26 -74 0
-38 -74 0
37 38 39 40 41 42 0
-37 -304 0
-37 -305 0
-37 -306 0
-38 304 0
-38 -305 0
-38 -306 0
-39 -304 0
-39 305 0
-39 -306 0
-40 304 0
-40 305 0
-40 -306 0
-41 -304 0
-41 -305 0
-41 306 0
-42 304 0
-42 -305 0
-42 306 0
-37 79 0
-37 31 0
-38 80 0
-38 32 0
-39 81 0
-39 33 0
-40 82 0
-40 34 0
-41 83 0
-41 35 0
-42 84 0
-42 36 0
48 0
-43 0
-44 0
-45 0
-46 0
-47 0
90 54 6 0
-90 -54 0
-90 -6 0
-54 -6 0
49 50 51 52 53 54 0
-49 -307 0
-49 -308 0
-49 -309 0
-50 307 0
-50 -308 0
-50 -309 0
-51 -307 0
-51 308 0
-51 -309 0
-52 307 0
-52 308 0
-52 -309 0
-53 -307 0
-53 -308 0
-53 309 0
-54 307 0
-54 -308 0
-54 309 0
-49 91 55 7 0
-49 91 55 43 0
-49 91 7 43 0
-49 55 7 43 0
-50 92 56 8 0
-50 92 56 44 0
-50 92 8 44 0
-50 56 8 44 0
-51 93 57 9 0
-51 93 57 45 0
-51 93 9 45 0
-51 57 9 45 0
-52 94 58 10 0
-52 94 58 46 0
-52 94 10 46 0
-52 58 10 46 0
-53 95 59 11 0
-53 95 59 47 0
-53 95 11 47 0
-53 59 11 47 0
-54 96 60 12 0
-54 96 60 48 0
-54 96 12 48 0
-54 60 12 48 0
-49 -91 -55 -7 0
-49 -91 -55 -43 0
-49 -91 -7 -43 0
-49 -55 -7 -43 0
-50 -92 -56 -8 0
-50 -92 -56 -44 0
-50 -92 -8 -44 0
-50 -56 -8 -44 0
-51 -93 -57 -9 0
-51 -93 -57 -45 0
-51 -93 -9 -45 0
-51 -57 -9 -45 0
-52 -94 -58 -10 0
-52 -94 -58 -46 0
-52 -94 -10 -46 0
-52 -58 -10 -46 0
-53 -95 -59 -11 0
-53 -95 -59 -47 0
-53 -95 -11 -47 0
-53 -59 -11 -47 0
-54 -96 -60 -12 0
-54 -96 -60 -48 0
-54 -96 -12 -48 0
-54 -60 -12 -48 0
55 56 57 58 59 60 0
-55 -310 0
-55 -311 0
-55 -312 0
-56 310 0
-56 -311 0
-56 -312 0
-57 -310 0
-57 311 0
-57 -312 0
-58 310 0
-58 311 0
-58 -312 0
-59 -310 0
-59 -311 0
-59 312 0
-60 310 0
-60 -311 0
-60 312 0
-55 97 61 13 0
-55 97 61 49 0
-55 97 13 49 0
-55 61 13 49 0
-56 98 62 14 0
-56 98 62 50 0
-56 98 14 50 0
-56 62 14 50 0
-57 99 63 15 0
-57 99 63 51 0
-57 99 15 51 0
-57 63 15 51 0
-58 100 64 16 0
-58 100 64 52 0
-58 100 16 52 0
-58 64 16 52 0
-59 101 65 17 0
-59 101 65 53 0
-59 101 17 53 0
-59 65 17 53 0
-60 102 66 18 0
-60 102 66 54 0
-60 102 18 54 0
-60 66 18 54 0
-55 -97 -61 -13 0
-55 -97 -61 -49 0
-55 -97 -13 -49 0
-55 -61 -13 -49 0
-56 -98 -62 -14 0
-56 -98 -62 -50 0
-56 -98 -14 -50 0
-56 -62 -14 -50 0
-57 -99 -63 -15 0
-57 -99 -63 -51 0
-57 -99 -15 -51 0
-57 -63 -15 -51 0
-58 -100 -64 -16 0
-58 -100 -64 -52 0
-58 -100 -16 -52 0
-58 -64 -16 -52 0
-59 -101 -65 -17 0
-59 -101 -65 -53 0
-59 -101 -17 -53 0
-59 -65 -17 -53 0
-60 -102 -66 -18 0
-60 -102 -66 -54 0
-60 -102 -18 -54 0
-60 -66 -18 -54 0
61 62 63 64 65 66 0
-61 -313 0
-61 -314 0
-61 -315 0
-62 313 0
-62 -314 0
-62 -315 0
-63 -313 0
-63 314 0
-63 -315 0
-64 313 0
-64 314 0
-64 -315 0
-65 -313 0
-65 -314 0
-65 315 0
-66 313 0
-66 -314 0
-66 315 0
-61 103 67 19 0
-61 103 67 55 0
-61 103 19 55 0
-61 67 19 55 0
-62 104 68 20 0
-62 104 68 56 0
-62 104 20 56 0
-62 68 20 56 0
-63 105 69 21 0
-63 105 69 57 0
-63 105 21 57 0
-63 69 21 57 0
-64 106 70 22 0
-64 106 70 58 0
-64 106 22 58 0
-64 70 22 58 0
-65 107 71 23 0
-65 107 71 59 0
-65 107 23 59 0
-65 71 23 59 0
-66 108 72 24 0
-66 108 72 60 0
-66 108 24 60 0
-66 72 24 60 0
-61 -103 -67 -19 0
-61 -103 -67 -55 0
-61 -103 -19 -55 0
-61 -67 -19 -55 0
-62 -104 -68 -20 0
-62 -104 -68 -56 0
-62 -104 -20 -56 0
-62 -68 -20 -56 0
-63 -105 -69 -21 0
-63 -105 -69 -57 0
-63 -105 -21 -57 0
-63 -69 -21 -57 0
-64 -106 -70 -22 0
-64 -106 -70 -58 0
-64 -106 -22 -58 0
-64 -70 -22 -58 0
-65 -107 -71 -23 0
-65 -107 -71 -59 0
-65 -107 -23 -59 0
-65 -71 -23 -59 0
-66 -108 -72 -24 0
-66 -108 -72 -60 0
-66 -108 -24 -60 0
-66 -72 -24 -60 0
72 0
-67 0
-68 0
-69 0
-70 0
-71 0
114 78 30 66 0
-114 -78 0
-114 -30 0
-114 -66 0
-78 -30 0
-78 -66 0
-30 -66 0
75 0
-73 0
-74 0
-76 0
-77 0
-78 0
117 81 33 69 0
-117 -81 0
-117 -33 0
-117 -69 0
-81 -33 0
-81 -69 0
-33 -69 0
79 80 81 82 83 84 0
-79 -316 0
-79 -317 0
-79 -318 0
-80 316 0
-80 -317 0
-80 -318 0
-81 -316 0
-81 317 0
-81 -318 0
-82 316 0
-82 317 0
-82 -318 0
-83 -316 0
-83 -317 0
-83 318 0
-84 316 0
-84 -317 0
-84 318 0
-79 121 73 0
-79 121 37 0
-79 73 37 0
-80 122 74 0
-80 122 38 0
-80 74 38 0
-81 123 75 0
-81 123 39 0
-81 75 39 0
-82 124 76 0
-82 124 40 0
-82 76 40 0
-83 125 77 0
-83 125 41 0
-83 77 41 0
-84 126 78 0
-84 126 42 0
-84 78 42 0
-79 -121 -73 -37 0
-80 -122 -74 -38 0
-81 -123 -75 -39 0
-82 -124 -76 -40 0
-83 -125 -77 -41 0
-84 -126 -78 -42 0
85 86 87 88 89 90 0
-85 -319 0
-85 -320 0
-85 -321 0
-86 319 0
-86 -320 0
-86 -321 0
-87 -319 0
-87 320 0
-87 -321 0
-88 319 0
-88 320 0
-88 -321 0
-89 -319 0
-89 -320 0
-89 321 0
-90 319 0
-90 -320 0
-90 321 0
-85 127 91 0
-85 127 43 0
-85 91 43 0
-86 128 92 0
-86 128 44 0
-86 92 44 0
-87 129 93 0
-87 129 45 0
-87 93 45 0
-88 130 94 0
-88 130 46 0
-88 94 46 0
-89 131 95 0
-89 131 47 0
-89 95 47 0
-90 132 96 0
-90 132 48 0
-90 96 48 0
-85 -127 -91 -43 0
-86 -128 -92 -44 0
-87 -129 -93 -45 0
-88 -130 -94 -46 0
-89 -131 -95 -47 0
-90 -132 -96 -48 0
91 92 93 94 95 96 0
-91 -322 0
-91 -323 0
-91 -324 0
-92 322 0
-92 -323 0
-92 -324 0
-93 -322 0
-93 323 0
-93 -324 0
-94 322 0
-94 323 0
-94 -324 0
-95 -322 0
-95 -323 0
-95 324 0
-96 322 0
-96 -323 0
-96 324 0
-91 133 97 49 0
-91 133 97 85 0
-91 133 49 85 0
-91 97 49 85 0
-92 134 98 50 0
-92 134 98 86 0
-92 134 50 86 0
-92 98 50 86 0
-93 135 99 51 0
-93 135 99 87 0
-93 135 51 87 0
-93 99 51 87 0
-94 136 100 52 0
-94 136 100 88 0
-94 136 52 88 0
-94 100 52 88 0
-95 137 101 53 0
-95 137 101 89 0
-95 137 53 89 0
-95 101 53 89 0
-96 138 102 54 0
-96 138 102 90 0
-96 138 54 90 0
-96 102 54 90 0
-91 -133 -97 -49 0
-91 -133 -97 -85 0
-91 -133 -49 -85 0
-91 -97 -49 -85 0
-92 -134 -98 -50 0
-92 -134 -98 -86 0
-92 -134 -50 -86 0
-92 -98 -50 -86 0
-93 -135 -99 -51 0
-93 -135 -99 -87 0
-93 -135 -51 -87 0
-93 -99 -51 -87 0
-94 -136 -100 -52 0
-94 -136 -100 -88 0
-94 -136 -52 -88 0
-94 -100 -52 -88 0
-95 -137 -101 -53 0
-95 -137 -101 -89 0
-95 -137 -53 -89 0
-95 -101 -53 -89 0
-96 -138 -102 -54 0
-96 -138 -102 -90 0
-96 -138 -54 -90 0
-96 -102 -54 -90 0
101 0
-97 0
-98 0
-99 0
-100 0
-102 0
143 107 59 95 0
-143 -107 0
-143 -59 0
-143 -95 0
-107 -59 0
-107 -95 0
-59 -95 0
103 104 105 106 107 108 0
-103 -325 0
-103 -326 0
-103 -327 0
-104 325 0
-104 -326 0
-104 -327 0
-105 -325 0
-105 326 0
-105 -327 0
-106 325 0
-106 326 0
-106 -327 0
-107 -325 0
-107 -326 0
-107 327 0
-108 325 0
-108 -326 0
-108 327 0
-103 145 109 61 0
-103 145 109 97 0
-103 145 61 97 0
-103 109 61 97 0
-104 146 110 62 0
-104 146 110 98 0
-104 146 62 98 0
-104 110 62 98 0
-105 147 111 63 0
-105 147 111 99 0
-105 147 63 99 0
-105 111 63 99 0
-106 148 112 64 0
-106 148 112 100 0
-106 148 64 100 0
-106 112 64 100 0
-107 149 113 65 0
-107 149 113 101 0
-107 149 65 101 0
-107 113 65 101 0
-108 150 114 66 0
-108 150 114 102 0
-108 150 66 102 0
-108 114 66 102 0
-103 -145 -109 -61 0
-103 -145 -109 -97 0
-103 -145 -61 -97 0
-103 -109 -61 -97 0
-104 -146 -110 -62 0
-104 -146 -110 -98 0
-104 -146 -62 -98 0
-104 -110 -62 -98 0
-105 -147 -111 -63 0
-105 -147 -111 -99 0
-105 -147 -63 -99 0
-105 -111 -63 -99 0
-106 -148 -112 -64 0
-106 -148 -112 -100 0
-106 -148 -64 -100 0
-106 -112 -64 -100 0
-107 -149 -113 -65 0
-107 -149 -113 -101 0
-107 -149 -65 -101 0
-107 -113 -65 -101 0
-108 -150 -114 -66 0
-108 -150 -114 -102 0
-108 -150 -66 -102 0
-108 -114 -66 -102 0
109 110 111 112 113 114 0
-109 -328 0
-109 -329 0
-109 -330 0
-110 328 0
-110 -329 0
-110 -330 0
-111 -328 0
-111 329 0
-111 -330 0
-112 328 0
-112 329 0
-112 -330 0
-113 -328 0
-113 -329 0
-113 330 0
-114 328 0
-114 -329 0
-114 330 0
-109 151 115 67 0
-109 151 115 103 0
-109 151 67 103 0
-109 115 67 103 0
-110 152 116 68 0
-110 152 116 104 0
-110 152 68 104 0
-110 116 68 104 0
-111 153 117 69 0
-111 153 117 105 0
-111 153 69 105 0
-111 117 69 105 0
-112 154 118 70 0
-112 154 118 106 0
-112 154 70 106 0
-112 118 70 106 0
-113 155 119 71 0
-113 155 119 107 0
-113 155 71 107 0
-113 119 71 107 0
-114 156 120 72 0
-114 156 120 108 0
-114 156 72 108 0
-114 120 72 108 0
-109 -151 -115 -67 0
-109 -151 -115 -103 0
-109 -151 -67 -103 0
-109 -115 -67 -103 0
-110 -152 -116 -68 0
-110 -152 -116 -104 0
-110 -152 -68 -104 0
-110 -116 -68 -104 0
-111 -153 -117 -69 0
-111 -153 -117 -105 0
-111 -153 -69 -105 0
-111 -117 -69 -105 0
-112 -154 -118 -70 0
-112 -154 -118 -106 0
-112 -154 -70 -106 0
-112 -118 -70 -106 0
-113 -155 -119 -71 0
-113 -155 -119 -107 0
-113 -155 -71 -107 0
-113 -119 -71 -107 0
-114 -156 -120 -72 0
-114 -156 -120 -108 0
-114 -156 -72 -108 0
-114 -120 -72 -108 0
115 116 117 118 119 120 0
-115 -331 0
-115 -332 0
-115 -333 0
-116 331 0
-116 -332 0
-116 -333 0
-117 -331 0
-117 332 0
-117 -333 0
-118 331 0
-118 332 0
-118 -333 0
-119 -331 0
-119 -332 0
-119 333 0
-120 331 0
-120 -332 0
-120 333 0
-115 157 121 73 0
-115 157 121 109 0
-115 157 73 109 0
-115 121 73 109 0
-116 158 122 74 0
-116 158 122 110 0
-116 158 74 110 0
-116 122 74 110 0
-117 159 123 75 0
-117 159 123 111 0
-117 159 75 111 0
-117 123 75 111 0
-118 160 124 76 0
-118 160 124 112 0
-118 160 76 112 0
-118 124 76 112 0
-119 161 125 77 0
-119 161 125 113 0
-119 161 77 113 0
-119 125 77 113 0
-120 162 126 78 0
-120 162 126 114 0
-120 162 78 114 0
-120 126 78 114 0
-115 -157 -121 -73 0
-115 -157 -121 -109 0
-115 -157 -73 -109 0
-115 -121 -73 -109 0
-116 -158 -122 -74 0
-116 -158 -122 -110 0
-116 -158 -74 -110 0
-116 -122 -74 -110 0
-117 -159 -123 -75 0
-117 -159 -123 -111 0
-117 -159 -75 -111 0
-117 -123 -75 -111 0
-118 -160 -124 -76 0
-118 -160 -124 -112 0
-118 -160 -76 -112 0
-118 -124 -76 -112 0
-119 -161 -125 -77 0
-119 -161 -125 -113 0
-119 -161 -77 -113 0
-119 -125 -77 -113 0
-120 -162 -126 -78 0
-120 -162 -126 -114 0
-120 -162 -78 -114 0
-120 -126 -78 -114 0
121 122 123 124 125 126 0
-121 -334 0
-121 -335 0
-121 -336 0
-122 334 0
-122 -335 0
-122 -336 0
-123 -334 0
-123 335 0
-123 -336 0
-124 334 0
-124 335 0
-124 -336 0
-125 -334 0
-125 -335 0
-125 336 0
-126 334 0
-126 -335 0
-126 336 0
-121 163 115 0
-121 163 79 0
-121 115 79 0
-122 164 116 0
-122 164 80 0
-122 116 80 0
-123 165 117 0
-123 165 81 0
-123 117 81 0
-124 166 118 0
-124 166 82 0
-124 118 82 0
-125 167 119 0
-125 167 83 0
-125 119 83 0
-126 168 120 0
-126 168 84 0
-126 120 84 0
-121 -163 -115 -79 0
-122 -164 -116 -80 0
-123 -165 -117 -81 0
-124 -166 -118 -82 0
-125 -167 -119 -83 0
-126 -168 -120 -84 0
127 128 129 130 131 132 0
-127 -337 0
-127 -338 0
-127 -339 0
-128 337 0
-128 -338 0
-128 -339 0
-129 -337 0
-129 338 0
-129 -339 0
-130 337 0
-130 338 0
-130 -339 0
-131 -337 0
-131 -338 0
-131 339 0
-132 337 0
-132 -338 0
-132 339 0
-127 169 133 0
-127 169 85 0
-127 133 85 0
-128 170 134 0
-128 170 86 0
-128 134 86 0
-129 171 135 0
-129 171 87 0
-129 135 87 0
-130 172 136 0
-130 172 88 0
-130 136 88 0
-131 173 137 0
-131 173 89 0
-131 137 89 0
-132 174 138 0
-132 174 90 0
-132 138 90 0
-127 -169 -133 -85 0
-128 -170 -134 -86 0
-129 -171 -135 -87 0
-130 -172 -136 -88 0
-131 -173 -137 -89 0
-132 -174 -138 -90 0
133 134 135 136 137 138 0
-133 -340 0
-133 -341 0
-133 -342 0
-134 340 0
-134 -341 0
-134 -342 0
-135 -340 0
-135 341 0
-135 -342 0
-136 340 0
-136 341 0
-136 -342 0
-137 -340 0
-137 -341 0
-137 342 0
-138 340 0
-138 -341 0
-138 342 0
-133 175 139 91 0
-133 175 139 127 0
-133 175 91 127 0
-133 139 91 127 0
-134 176 140 92 0
-134 176 140 128 0
-134 176 92 128 0
-134 140 92 128 0
-135 177 141 93 0
-135 177 141 129 0
-135 177 93 129 0
-135 141 93 129 0
-136 178 142 94 0
-136 178 142 130 0
-136 178 94 130 0
-136 142 94 130 0
-137 179 143 95 0
-137 179 143 131 0
-137 179 95 131 0
-137 143 95 131 0
-138 180 144 96 0
-138 180 144 132 0
-138 180 96 132 0
-138 144 96 132 0
-133 -175 -139 -91 0
-133 -175 -139 -127 0
-133 -175 -91 -127 0
-133 -139 -91 -127 0
-134 -176 -140 -92 0
-134 -176 -140 -128 0
-134 -176 -92 -128 0
-134 -140 -92 -128 0
-135 -177 -141 -93 0
-135 -177 -141 -129 0
-135 -177 -93 -129 0
-135 -141 -93 -129 0
-136 -178 -142 -94 0
-136 -178 -142 -130 0
-136 -178 -94 -130 0
-136 -142 -94 -130 0
-137 -179 -143 -95 0
-137 -179 -143 -131 0
-137 -179 -95 -131 0
-137 -143 -95 -131 0
-138 -180 -144 -96 0
-138 -180 -144 -132 0
-138 -180 -96 -132 0
-138 -144 -96 -132 0
139 140 141 142 143 144 0
-139 -343 0
-139 -344 0
-139 -345 0
-140 343 0
-140 -344 0
-140 -345 0
-141 -343 0
-141 344 0
-141 -345 0
-142 343 0
-142 344 0
-142 -345 0
-143 -343 0
-143 -344 0
-143 345 0
-144 343 0
-144 -344 0
-144 345 0
-139 181 145 97 0
-139 181 145 133 0
-139 181 97 133 0
-139 145 97 133 0
-140 182 146 98 0
-140 182 146 134 0
-140 182 98 134 0
-140 146 98 134 0
-141 183 147 99 0
-141 183 147 135 0
-141 183 99 135 0
-141 147 99 135 0
-142 184 148 100 0
-142 184 148 136 0
-142 184 100 136 0
-142 148 100 136 0
-143 185 149 101 0
-143 185 149 137 0
-143 185 101 137 0
-143 149 101 137 0
-144 186 150 102 0
-144 186 150 138 0
-144 186 102 138 0
-144 150 102 138 0
-139 -181 -145 -97 0
-139 -181 -145 -133 0
-139 -181 -97 -133 0
-139 -145 -97 -133 0
-140 -182 -146 -98 0
-140 -182 -146 -134 0
-140 -182 -98 -134 0
-140 -146 -98 -134 0
-141 -183 -147 -99 0
-141 -183 -147 -135 0
-141 -183 -99 -135 0
-141 -147 -99 -135 0
-142 -184 -148 -100 0
-142 -184 -148 -136 0
-142 -184 -100 -136 0
-142 -148 -100 -136 0
-143 -185 -149 -101 0
-143 -185 -149 -137 0
-143 -185 -101 -137 0
-143 -149 -101 -137 0
-144 -186 -150 -102 0
-144 -186 -150 -138 0
-144 -186 -102 -138 0
-144 -150 -102 -138 0
145 146 147 148 149 150 0
-145 -346 0
-145 -347 0
-145 -348 0
-146 346 0
-146 -347 0
-146 -348 0
-147 -346 0
-147 347 0
-147 -348 0
-148 346 0
-148 347 0
-148 -348 0
-149 -346 0
-149 -347 0
-149 348 0
-150 346 0
-150 -347 0
-150 348 0
-145 187 151 103 0
-145 187 151 139 0
-145 187 103 139 0
-145 151 103 139 0
-146 188 152 104 0
-146 188 152 140 0
-146 188 104 140 0
-146 152 104 140 0
-147 189 153 105 0
-147 189 153 141 0
-147 189 105 141 0
-147 153 105 141 0
-148 190 154 106 0
-148 190 154 142 0
-148 190 106 142 0
-148 154 106 142 0
-149 191 155 107 0
-149 191 155 143 0
-149 191 107 143 0
-149 155 107 143 0
-150 192 156 108 0
-150 192 156 144 0
-150 192 108 144 0
-150 156 108 144 0
-145 -187 -151 -103 0
-145 -187 -151 -139 0
-145 -187 -103 -139 0
-145 -151 -103 -139 0
-146 -188 -152 -104 0
-146 -188 -152 -140 0
-146 -188 -104 -140 0
-146 -152 -104 -140 0
-147 -189 -153 -105 0
-147 -189 -153 -141 0
-147 -189 -105 -141 0
-147 -153 -105 -141 0
-148 -190 -154 -106 0
-148 -190 -154 -142 0
-148 -190 -106 -142 0
-148 -154 -106 -142 0
-149 -191 -155 -107 0
-149 -191 -155 -143 0
-149 -191 -107 -143 0
-149 -155 -107 -143 0
-150 -192 -156 -108 0
-150 -192 -156 -144 0
-150 -192 -108 -144 0
-150 -156 -108 -144 0
152 0
-151 0
-153 0
-154 0
-155 0
-156 0
194 158 110 146 0
-194 -158 0
-194 -110 0
-194 -146 0
-158 -110 0
-158 -146 0
-110 -146 0
160 0
-157 0
-158 0
-159 0
-161 0
-162 0
202 166 118 154 0
-202 -166 0
-202 -118 0
-202 -154 0
-166 -118 0
-166 -154 0
-118 -154 0
163 164 165 166 167 168 0
-163 -349 0
-163 -350 0
-163 -351 0
-164 349 0
-164 -350 0
-164 -351 0
-165 -349 0
-165 350 0
-165 -351 0
-166 349 0
-166 350 0
-166 -351 0
-167 -349 0
-167 -350 0
-167 351 0
-168 349 0
-168 -350 0
-168 351 0
-163 205 157 0
-163 205 121 0
-163 157 121 0
-164 206 158 0
-164 206 122 0
-164 158 122 0
-165 207 159 0
-165 207 123 0
-165 159 123 0
-166 208 160 0
-166 208 124 0
-166 160 124 0
-167 209 161 0
-167 209 125 0
-167 161 125 0
-168 210 162 0
-168 210 126 0
-168 162 126 0
-163 -205 -157 -121 0
-164 -206 -158 -122 0
-165 -207 -159 -123 0
-166 -208 -160 -124 0
-167 -209 -161 -125 0
-168 -210 -162 -126 0
169 170 171 172 173 174 0
-169 -352 0
-169 -353 0
-169 -354 0
-170 352 0
-170 -353 0
-170 -354 0
-171 -352 0
-171 353 0
-171 -354 0
-172 352 0
-172 353 0
-172 -354 0
-173 -352 0
-173 -353 0
-173 354 0
-174 352 0
-174 -353 0
-174 354 0
-169 211 175 0
-169 211 127 0
-169 175 127 0
-170 212 176 0
-170 212 128 0
-170 176 128 0
-171 213 177 0
-171 213 129 0
-171 177 129 0
-172 214 178 0
-172 214 130 0
-172 178 130 0
-173 215 179 0
-173 215 131 0
-173 179 131 0
-174 216 180 0
-174 216 132 0
-174 180 132 0
-169 -211 -175 -127 0
-170 -212 -176 -128 0
-171 -213 -177 -129 0
-172 -214 -178 -130 0
-173 -215 -179 -131 0
-174 -216 -180 -132 0
175 176 177 178 179 180 0
-175 -355 0
-175 -356 0
-175 -357 0
-176 355 0
-176 -356 0
-176 -357 0
-177 -355 0
-177 356 0
-177 -357 0
-178 355 0
-178 356 0
-178 -357 0
-179 -355 0
-179 -356 0
-179 357 0
-180 355 0
-180 -356 0
-180 357 0
-175 217 181 133 0
-175 217 181 169 0
-175 217 133 169 0
-175 181 133 169 0
-176 218 182 134 0
-176 218 182 170 0
-176 218 134 170 0
-176 182 134 170 0
-177 219 183 135 0
-177 219 183 171 0
-177 219 135 171 0
-177 183 135 171 0
-178 220 184 136 0
-178 220 184 172 0
-178 220 136 172 0
-178 184 136 172 0
-179 221 185 137 0
-179 221 185 173 0
-179 221 137 173 0
-179 185 137 173 0
-180 222 186 138 0
-180 222 186 174 0
-180 222 138 174 0
-180 186 138 174 0
-175 -217 -181 -133 0
-175 -217 -181 -169 0
-175 -217 -133 -169 0
-175 -181 -133 -169 0
-176 -218 -182 -134 0
-176 -218 -182 -170 0
-176 -218 -134 -170 0
-176 -182 -134 -170 0
-177 -219 -183 -135 0
-177 -219 -183 -171 0
-177 -219 -135 -171 0
-177 -183 -135 -171 0
-178 -220 -184 -136 0
-178 -220 -184 -172 0
-178 -220 -136 -172 0
-178 -184 -136 -172 0
-179 -221 -185 -137 0
-179 -221 -185 -173 0
-179 -221 -137 -173 0
-179 -185 -137 -173 0
-180 -222 -186 -138 0
-180 -222 -186 -174 0
-180 -222 -138 -174 0
-180 -186 -138 -174 0
181 182 183 184 185 186 0
-181 -358 0
-181 -359 0
-181 -360 0
-182 358 0
-182 -359 0
-182 -360 0
-183 -358 0
-183 359 0
-183 -360 0
-184 358 0
-184 359 0
-184 -360 0
-185 -358 0
-185 -359 0
-185 360 0
-186 358 0
-186 -359 0
-186 360 0
-181 223 187 139 0
-181 223 187 175 0
-181 223 139 175 0
-181 187 139 175 0
-182 224 188 140 0
-182 224 188 176 0
-182 224 140 176 0
-182 188 140 176 0
-183 225 189 141 0
-183 225 189 177 0
-183 225 141 177 0
-183 189 141 177 0
-184 226 190 142 0
-184 226 190 178 0
-184 226 142 178 0
-184 190 142 178 0
-185 227 191 143 0
-185 227 191 179 0
-185 227 143 179 0
-185 191 143 179 0
-186 228 192 144 0
-186 228 192 180 0
-186 228 144 180 0
-186 192 144 180 0
-181 -223 -187 -139 0
-181 -223 -187 -175 0
-181 -223 -139 -175 0
-181 -187 -139 -175 0
-182 -224 -188 -140 0
-182 -224 -188 -176 0
-182 -224 -140 -176 0
-182 -188 -140 -176 0
-183 -225 -189 -141 0
-183 -225 -189 -177 0
-183 -225 -141 -177 0
-183 -189 -141 -177 0
-184 -226 -190 -142 0
-184 -226 -190 -178 0
-184 -226 -142 -178 0
-184 -190 -142 -178 0
-185 -227 -191 -143 0
-185 -227 -191 -179 0
-185 -227 -143 -179 0
-185 -191 -143 -179 0
-186 -228 -192 -144 0
-186 -228 -192 -180 0
-186 -228 -144 -180 0
-186 -192 -144 -180 0
187 188 189 190 191 192 0
-187 -361 0
-187 -362 0
-187 -363 0
-188 361 0
-188 -362 0
-188 -363 0
-189 -361 0
-189 362 0
-189 -363 0
-190 361 0
-190 362 0
-190 -363 0
-191 -361 0
-191 -362 0
-191 363 0
-192 361 0
-192 -362 0
-192 363 0
-187 229 193 145 0
-187 229 193 181 0
-187 229 145 181 0
-187 193 145 181 0
-188 230 194 146 0
-188 230 194 182 0
-188 230 146 182 0
-188 194 146 182 0
-189 231 195 147 0
-189 231 195 183 0
-189 231 147 183 0
-189 195 147 183 0
-190 232 196 148 0
-190 232 196 184 0
-190 232 148 184 0
-190 196 148 184 0
-191 233 197 149 0
-191 233 197 185 0
-191 233 149 185 0
-191 197 149 185 0
-192 234 198 150 0
-192 234 198 186 0
-192 234 150 186 0
-192 198 150 186 0
-187 -229 -193 -145 0
-187 -229 -193 -181 0
-187 -229 -145 -181 0
-187 -193 -145 -181 0
-188 -230 -194 -146 0
-188 -230 -194 -182 0
-188 -230 -146 -182 0
-188 -194 -146 -182 0
-189 -231 -195 -147 0
-189 -231 -195 -183 0
-189 -231 -147 -183 0
-189 -195 -147 -183 0
-190 -232 -196 -148 0
-190 -232 -196 -184 0
-190 -232 -148 -184 0
-190 -196 -148 -184 0
-191 -233 -197 -149 0
-191 -233 -197 -185 0
-191 -233 -149 -185 0
-191 -197 -149 -185 0
-192 -234 -198 -150 0
-192 -234 -198 -186 0
-192 -234 -150 -186 0
-192 -198 -150 -186 0
193 194 195 196 197 198 0
-193 -364 0
-193 -365 0
-193 -366 0
-194 364 0
-194 -365 0
-194 -366 0
-195 -364 0
-195 365 0
-195 -366 0
-196 364 0
-196 365 0
-196 -366 0
-197 -364 0
-197 -365 0
-197 366 0
-198 364 0
-198 -365 0
-198 366 0
-193 235 199 151 0
-193 235 199 187 0
-193 235 151 187 0
-193 199 151 187 0
-194 236 200 152 0
-194 236 200 188 0
-194 236 152 188 0
-194 200 152 188 0
-195 237 201 153 0
-195 237 201 189 0
-195 237 153 189 0
-195 201 153 189 0
-196 238 202 154 0
-196 238 202 190 0
-196 238 154 190 0
-196 202 154 190 0
-197 239 203 155 0
-197 239 203 191 0
-197 239 155 191 0
-197 203 155 191 0
-198 240 204 156 0
-198 240 204 192 0
-198 240 156 192 0
-198 204 156 192 0
-193 -235 -199 -151 0
-193 -235 -199 -187 0
-193 -235 -151 -187 0
-193 -199 -151 -187 0
-194 -236 -200 -152 0
-194 -236 -200 -188 0
-194 -236 -152 -188 0
-194 -200 -152 -188 0
-195 -237 -201 -153 0
-195 -237 -201 -189 0
-195 -237 -153 -189 0
-195 -201 -153 -189 0
-196 -238 -202 -154 0
-196 -238 -202 -190 0
-196 -238 -154 -190 0
-196 -202 -154 -190 0
-197 -239 -203 -155 0
-197 -239 -203 -191 0
-197 -239 -155 -191 0
-197 -203 -155 -191 0
-198 -240 -204 -156 0
-198 -240 -204 -192 0
-198 -240 -156 -192 0
-198 -204 -156 -192 0
199 200 201 202 203 204 0
-199 -367 0
-199 -368 0
-199 -369 0
-200 367 0
-200 -368 0
-200 -369 0
-201 -367 0
-201 368 0
-201 -369 0
-202 367 0
-202 368 0
-202 -369 0
-203 -367 0
-203 -368 0
-203 369 0
-204 367 0
-204 -368 0
-204 369 0
-199 241 205 157 0
-199 241 205 193 0
-199 241 157 193 0
-199 205 157 193 0
-200 242 206 158 0
-200 242 206 194 0
-200 242 158 194 0
-200 206 158 194 0
-201 243 207 159 0
-201 243 207 195 0
-201 243 159 195 0
-201 207 159 195 0
-202 244 208 160 0
-202 244 208 196 0
-202 244 160 196 0
-202 208 160 196 0
-203 245 209 161 0
-203 245 209 197 0
-203 245 161 197 0
-203 209 161 197 0
-204 246 210 162 0
-204 246 210 198 0
-204 246 162 198 0
-204 210 162 198 0
-199 -241 -205 -157 0
-199 -241 -205 -193 0
-199 -241 -157 -193 0
-199 -205 -157 -193 0
-200 -242 -206 -158 0
-200 -242 -206 -194 0
-200 -242 -158 -194 0
-200 -206 -158 -194 0
-201 -243 -207 -159 0
-201 -243 -207 -195 0
-201 -243 -159 -195 0
-201 -207 -159 -195 0
-202 -244 -208 -160 0
-202 -244 -208 -196 0
-202 -244 -160 -196 0
-202 -208 -160 -196 0
-203 -245 -209 -161 0
-203 -245 -209 -197 0
-203 -245 -161 -197 0
-203 -209 -161 -197 0
-204 -246 -210 -162 0
-204 -246 -210 -198 0
-204 -246 -162 -198 0
-204 -210 -162 -198 0
205 206 207 208 209 210 0
-205 -370 0
-205 -371 0
-205 -372 0
-206 370 0
-206 -371 0
-206 -372 0
-207 -370 0
-207 371 0
-207 -372 0
-208 370 0
-208 371 0
-208 -372 0
-209 -370 0
-209 -371 0
-209 372 0
-210 370 0
-210 -371 0
-210 372 0
-205 247 199 0
-205 247 163 0
-205 199 163 0
-206 248 200 0
-206 248 164 0
-206 200 164 0
-207 249 201 0
-207 249 165 0
-207 201 165 0
-208 250 202 0
-208 250 166 0
-208 202 166 0
-209 251 203 0
-209 251 167 0
-209 203 167 0
-210 252 204 0
-210 252 168 0
-210 204 168 0
-205 -247 -199 -163 0
-206 -248 -200 -164 0
-207 -249 -201 -165 0
-208 -250 -202 -166 0
-209 -251 -203 -167 0
-210 -252 -204 -168 0
215 0
-211 0
-212 0
-213 0
-214 0
-216 0
257 221 173 0
-257 -221 0
-257 -173 0
-221 -173 0
217 218 219 220 221 222 0
-217 -373 0
-217 -374 0
-217 -375 0
-218 373 0
-218 -374 0
-218 -375 0
-219 -373 0
-219 374 0
-219 -375 0
-220 373 0
-220 374 0
-220 -375 0
-221 -373 0
-221 -374 0
-221 375 0
-222 373 0
-222 -374 0
-222 375 0
-217 259 223 175 0
-217 259 223 211 0
-217 259 175 211 0
-217 223 175 211 0
-218 260 224 176 0
-218 260 224 212 0
-218 260 176 212 0
-218 224 176 212 0
-219 261 225 177 0
-219 261 225 213 0
-219 261 177 213 0
-219 225 177 213 0
-220 262 226 178 0
-220 262 226 214 0
-220 262 178 214 0
-220 226 178 214 0
-221 263 227 179 0
-221 263 227 215 0
-221 263 179 215 0
-221 227 179 215 0
-222 264 228 180 0
-222 264 228 216 0
-222 264 180 216 0
-222 228 180 216 0
-217 -259 -223 -175 0
-217 -259 -223 -211 0
-217 -259 -175 -211 0
-217 -223 -175 -211 0
-218 -260 -224 -176 0
-218 -260 -224 -212 0
-218 -260 -176 -212 0
-218 -224 -176 -212 0
-219 -261 -225 -177 0
-219 -261 -225 -213 0
-219 -261 -177 -213 0
-219 -225 -177 -213 0
-220 -262 -226 -178 0
-220 -262 -226 -214 0
-220 -262 -178 -214 0
-220 -226 -178 -214 0
-221 -263 -227 -179 0
-221 -263 -227 -215 0
-221 -263 -179 -215 0
-221 -227 -179 -215 0
-222 -264 -228 -180 0
-222 -264 -228 -216 0
-222 -264 -180 -216 0
-222 -228 -180 -216 0
223 224 225 226 227 228 0
-223 -376 0
-223 -377 0
-223 -378 0
-224 376 0
-224 -377 0
-224 -378 0
-225 -376 0
-225 377 0
-225 -378 0
-226 376 0
-226 377 0
-226 -378 0
-227 -376 0
-227 -377 0
-227 378 0
-228 376 0
-228 -377 0
-228 378 0
-223 265 229 181 0
-223 265 229 217 0
-223 265 181 217 0
-223 229 181 217 0
-224 266 230 182 0
-224 266 230 218 0
-224 266 182 218 0
-224 230 182 218 0
-225 267 231 183 0
-225 267 231 219 0
-225 267 183 219 0
-225 231 183 219 0
-226 268 232 184 0
-226 268 232 220 0
-226 268 184 220 0
-226 232 184 220 0
-227 269 233 185 0
-227 269 233 221 0
-227 269 185 221 0
-227 233 185 221 0
-228 270 234 186 0
-228 270 234 222 0
-228 270 186 222 0
-228 234 186 222 0
-223 -265 -229 -181 0
-223 -265 -229 -217 0
-223 -265 -181 -217 0
-223 -229 -181 -217 0
-224 -266 -230 -182 0
-224 -266 -230 -218 0
-224 -266 -182 -218 0
-224 -230 -182 -218 0
-225 -267 -231 -183 0
-225 -267 -231 -219 0
-225 -267 -183 -219 0
-225 -231 -183 -219 0
-226 -268 -232 -184 0
-226 -268 -232 -220 0
-226 -268 -184 -220 0
-226 -232 -184 -220 0
-227 -269 -233 -185 0
-227 -269 -233 -221 0
-227 -269 -185 -221 0
-227 -233 -185 -221 0
-228 -270 -234 -186 0
-228 -270 -234 -222 0
-228 -270 -186 -222 0
-228 -234 -186 -222 0
232 0
-229 0
-230 0
-231 0
-233 0
-234 0
274 238 190 226 0
-274 -238 0
-274 -190 0
-274 -226 0
-238 -190 0
-238 -226 0
-190 -226 0
235 236 237 238 239 240 0
-235 -379 0
-235 -380 0
-235 -381 0
-236 379 0
-236 -380 0
-236 -381 0
-237 -379 0
-237 380 0
-237 -381 0
-238 379 0
-238 380 0
-238 -381 0
-239 -379 0
-239 -380 0
-239 381 0
-240 379 0
-240 -380 0
-240 381 0
-235 277 241 193 0
-235 277 241 229 0
-235 277 193 229 0
-235 241 193 229 0
-236 278 242 194 0
-236 278 242 230 0
-236 278 194 230 0
-236 242 194 230 0
-237 279 243 195 0
-237 279 243 231 0
-237 279 195 231 0
-237 243 195 231 0
-238 280 244 196 0
-238 280 244 232 0
-238 280 196 232 0
-238 244 196 232 0
-239 281 245 197 0
-239 281 245 233 0
-239 281 197 233 0
-239 245 197 233 0
-240 282 246 198 0
-240 282 246 234 0
-240 282 198 234 0
-240 246 198 234 0
-235 -277 -241 -193 0
-235 -277 -241 -229 0
-235 -277 -193 -229 0
-235 -241 -193 -229 0
-236 -278 -242 -194 0
-236 -278 -242 -230 0
-236 -278 -194 -230 0
-236 -242 -194 -230 0
-237 -279 -243 -195 0
-237 -279 -243 -231 0
-237 -279 -195 -231 0
-237 -243 -195 -231 0
-238 -280 -244 -196 0
-238 -280 -244 -232 0
-238 -280 -196 -232 0
-238 -244 -196 -232 0
-239 -281 -245 -197 0
-239 -281 -245 -233 0
-239 -281 -197 -233 0
-239 -245 -197 -233 0
-240 -282 -246 -198 0
-240 -282 -246 -234 0
-240 -282 -198 -234 0
-240 -246 -198 -234 0
241 242 243 244 245 246 0
-241 -382 0
-241 -383 0
-241 -384 0
-242 382 0
-242 -383 0
-242 -384 0
-243 -382 0
-243 383 0
-243 -384 0
-244 382 0
-244 383 0
-244 -384 0
-245 -382 0
-245 -383 0
-245 384 0
-246 382 0
-246 -383 0
-246 384 0
-241 283 247 199 0
-241 283 247 235 0
-241 283 199 235 0
-241 247 199 235 0
-242 284 248 200 0
-242 284 248 236 0
-242 284 200 236 0
-242 248 200 236 0
-243 285 249 201 0
-243 285 249 237 0
-243 285 201 237 0
-243 249 201 237 0
-244 286 250 202 0
-244 286 250 238 0
-244 286 202 238 0
-244 250 202 238 0
-245 287 251 203 0
-245 287 251 239 0
-245 287 203 239 0
-245 251 203 239 0
-246 288 252 204 0
-246 288 252 240 0
-246 288 204 240 0
-246 252 204 240 0
-241 -283 -247 -199 0
-241 -283 -247 -235 0
-241 -283 -199 -235 0
-241 -247 -199 -235 0
-242 -284 -248 -200 0
-242 -284 -248 -236 0
-242 -284 -200 -236 0
-242 -248 -200 -236 0
-243 -285 -249 -201 0
-243 -285 -249 -237 0
-243 -285 -201 -237 0
-243 -249 -201 -237 0
-244 -286 -250 -202 0
-244 -286 -250 -238 0
-244 -286 -202 -238 0
-244 -250 -202 -238 0
-245 -287 -251 -203 0
-245 -287 -251 -239 0
-245 -287 -203 -239 0
-245 -251 -203 -239 0
-246 -288 -252 -204 0
-246 -288 -252 -240 0
-246 -288 -204 -240 0
-246 -252 -204 -240 0
247 248 249 250 251 252 0
-247 -385 0
-247 -386 0
-247 -387 0
-248 385 0
-248 -386 0
-248 -387 0
-249 -385 0
-249 386 0
-249 -387 0
-250 385 0
-250 386 0
-250 -387 0
-251 -385 0
-251 -386 0
-251 387 0
-252 385 0
-252 -386 0
-252 387 0
-247 289 241 0
-247 289 205 0
-247 241 205 0
-248 290 242 0
-248 290 206 0
-248 242 206 0
-249 291 243 0
-249 291 207 0
-249 243 207 0
-250 292 244 0
-250 292 208 0
-250 244 208 0
-251 293 245 0
-251 293 209 0
-251 245 209 0
-252 294 246 0
-252 294 210 0
-252 246 210 0
-247 -289 -241 -205 0
-248 -290 -242 -206 0
-249 -291 -243 -207 0
-250 -292 -244 -208 0
-251 -293 -245 -209 0
-252 -294 -246 -210 0
255 0
-253 0
-254 0
-256 0
-257 0
-258 0
213 261 0
-213 -261 0
259 260 261 262 263 264 0
-259 -388 0
-259 -389 0
-259 -390 0
-260 388 0
-260 -389 0
-260 -390 0
-261 -388 0
-261 389 0
-261 -390 0
-262 388 0
-262 389 0
-262 -390 0
-263 -388 0
-263 -389 0
-263 390 0
-264 388 0
-264 -389 0
-264 390 0
-259 217 265 0
-259 217 253 0
-259 265 253 0
-260 218 266 0
-260 218 254 0
-260 266 254 0
-261 219 267 0
-261 219 255 0
-261 267 255 0
-262 220 268 0
-262 220 256 0
-262 268 256 0
-263 221 269 0
-263 221 257 0
-263 269 257 0
-264 222 270 0
-264 222 258 0
-264 270 258 0
-259 -217 -265 -253 0
-260 -218 -266 -254 0
-261 -219 -267 -255 0
-262 -220 -268 -256 0
-263 -221 -269 -257 0
-264 -222 -270 -258 0
265 266 267 268 269 270 0
-265 -391 0
-265 -392 0
-265 -393 0
-266 391 0
-266 -392 0
-266 -393 0
-267 -391 0
-267 392 0
-267 -393 0
-268 391 0
-268 392 0
-268 -393 0
-269 -391 0
-269 -392 0
-269 393 0
-270 391 0
-270 -392 0
-270 393 0
-265 223 271 0
-265 223 259 0
-265 271 259 0
-266 224 272 0
-266 224 260 0
-266 272 260 0
-267 225 273 0
-267 225 261 0
-267 273 261 0
-268 226 274 0
-268 226 262 0
-268 274 262 0
-269 227 275 0
-269 227 263 0
-269 275 263 0
-270 228 276 0
-270 228 264 0
-270 276 264 0
-265 -223 -271 -259 0
-266 -224 -272 -260 0
-267 -225 -273 -261 0
-268 -226 -274 -262 0
-269 -227 -275 -263 0
-270 -228 -276 -264 0
271 272 273 274 275 276 0
-271 -394 0
-271 -395 0
-271 -396 0
-272 394 0
-272 -395 0
-272 -396 0
-273 -394 0
-273 395 0
-273 -396 0
-274 394 0
-274 395 0
-274 -396 0
-275 -394 0
-275 -395 0
-275 396 0
-276 394 0
-276 -395 0
-276 396 0
-271 229 277 0
-271 229 265 0
-271 277 265 0
-272 230 278 0
-272 230 266 0
-272 278 266 0
-273 231 279 0
-273 231 267 0
-273 279 267 0
-274 232 280 0
-274 232 268 0
-274 280 268 0
-275 233 281 0
-275 233 269 0
-275 281 269 0
-276 234 282 0
-276 234 270 0
-276 282 270 0
-271 -229 -277 -265 0
-272 -230 -278 -266 0
-273 -231 -279 -267 0
-274 -232 -280 -268 0
-275 -233 -281 -269 0
-276 -234 -282 -270 0
277 278 279 280 281 282 0
-277 -397 0
-277 -398 0
-277 -399 0
-278 397 0
-278 -398 0
-278 -399 0
-279 -397 0
-279 398 0
-279 -399 0
-280 397 0
-280 398 0
-280 -399 0
-281 -397 0
-281 -398 0
-281 399 0
-282 397 0
-282 -398 0
-282 399 0
-277 235 283 0
-277 235 271 0
-277 283 271 0
-278 236 284 0
-278 236 272 0
-278 284 272 0
-279 237 285 0
-279 237 273 0
-279 285 273 0
-280 238 286 0
-280 238 274 0
-280 286 274 0
-281 239 287 0
-281 239 275 0
-281 287 275 0
-282 240 288 0
-282 240 276 0
-282 288 276 0
-277 -235 -283 -271 0
-278 -236 -284 -272 0
-279 -237 -285 -273 0
-280 -238 -286 -274 0
-281 -239 -287 -275 0
-282 -240 -288 -276 0
283 284 285 286 287 288 0
-283 -400 0
-283 -401 0
-283 -402 0
-284 400 0
-284 -401 0
-284 -402 0
-285 -400 0
-285 401 0
-285 -402 0
-286 400 0
-286 401 0
-286 -402 0
-287 -400 0
-287 -401 0
-287 402 0
-288 400 0
-288 -401 0
-288 402 0
-283 241 289 0
-283 241 277 0
-283 289 277 0
-284 242 290 0
-284 242 278 0
-284 290 278 0
-285 243 291 0
-285 243 279 0
-285 291 279 0
-286 244 292 0
-286 244 280 0
-286 292 280 0
-287 245 293 0
-287 245 281 0
-287 293 281 0
-288 246 294 0
-288 246 282 0
-288 294 282 0
-283 -241 -289 -277 0
-284 -242 -290 -278 0
-285 -243 -291 -279 0
-286 -244 -292 -280 0
-287 -245 -293 -281 0
-288 -246 -294 -282 0
289 290 291 292 293 294 0
-289 -403 0
-289 -404 0
-289 -405 0
-290 403 0
-290 -404 0
-290 -405 0
-291 -403 0
-291 404 0
-291 -405 0
-292 403 0
-292 404 0
-292 -405 0
-293 -403 0
-293 -404 0
-293 405 0
-294 403 0
-294 -404 0
-294 405 0
-289 247 0
-289 283 0
-290 248 0
-290 284 0
-291 249 0
-291 285 0
-292 250 0
-292 286 0
-293 251 0
-293 287 0
-294 252 0
-294 288 0
7 49 91 133 175 217 259 0
13 55 139 181 223 265 0
19 61 103 145 187 271 0
50 56 62 80 0
86 92 104 110 116 122 0
87 93 105 111 117 123 0
129 135 141 147 165 0
171 177 183 189 195 201 207 0
219 225 237 243 249 0
9 51 93 135 177 219 261 0
15 57 141 183 225 267 0
21 63 105 147 189 273 0
111 195 237 279 0
172 178 184 190 196 202 208 0
112 196 238 280 0
131 137 143 149 167 0
173 179 185 191 197 203 209 0
11 53 95 137 179 221 263 0
12 54 96 138 180 222 264 0
18 60 144 186 228 270 0
24 66 108 150 192 276 0